********************************************************************************
Probe Values Report, written on Sat Dec 15 16:41:58 2018

Source
-------

   ODB: D:/thesis/mini-thesis/centrifuge/Centrifuge-2018-12-14-23-00.odb
   Step: injection
   Frame: Increment    100: Step Time =    74.10
   Variable: S, Mises (Avg: 75)

Probe values reported at nodes

  Part Instance     Node ID                   Orig. Coords                                     Def. Coords                 
                                    X               Y               Z               X               Y               Z      
-------------------------------------------------------------------------------------------------------------------------
      SOIL-1        8404              0.              0.              0.              0.              0.              0.
      SOIL-1        1771   -1.31894E-013              1.              0.       0.0673026        0.968832              0.
      SOIL-1        1775             0.5         1.00042              0.        0.565814        0.972484              0.
      SOIL-1        1779             1.5         1.00058              0.         1.57208         0.99345              0.
      SOIL-1        1783             2.5         1.67166              0.         2.56503         1.65626              0.
      SOIL-1        1787         3.18164              2.              0.         3.24205         1.98338              0.
      SOIL-1        1791             3.5          2.3575              0.         3.55034         2.34479              0.
      SOIL-1        1795             4.5         2.94448              0.         4.54717         2.92448              0.
      SOIL-1        1799         4.59359              3.              0.         4.64014         2.98079              0.
      SOIL-1        1803         4.85759              4.              0.         4.89185         3.98897              0.
      SOIL-1        1807         5.40549              5.              0.         5.42692         4.99729              0.
      SOIL-1        1811             5.5          5.1509              0.         5.51947         5.14989              0.
      SOIL-1        1815            5.51              6.              0.         5.51067         6.01106              0.
      SOIL-1        1816         5.51786              7.              0.         5.51788         7.01514              0.


  Part Instance     Node ID  Attached elements        S, Mises
---------------------------------------------------------------
      SOIL-1        8404            4980         NoValue
      SOIL-1        1771            1664         NoValue
      SOIL-1        1775            1666         NoValue
      SOIL-1        1779            1668         NoValue
      SOIL-1        1783            1670         NoValue
      SOIL-1        1787            1672         NoValue
      SOIL-1        1791            1674         NoValue
      SOIL-1        1795            1676         NoValue
      SOIL-1        1799            1678         NoValue
      SOIL-1        1803            1680         NoValue
      SOIL-1        1807            1682         NoValue
      SOIL-1        1811            1684         NoValue
      SOIL-1        1815            1686         NoValue
      SOIL-1        1816            1686         NoValue


********************************************************************************
Probe Values Report, written on Sat Dec 15 17:30:53 2018

Source
-------

   ODB: D:/thesis/mini-thesis/centrifuge/Centrifuge-2018-12-15-17-23.odb
   Step: injection
   Frame: Increment     32: Step Time =    100.0
   Variable: U, U2

Loc 1 : Integration point values

Probe values reported at integration points

  Part Instance  Element ID        Type  Attached nodes
--------------------------------------------------------------------------------
      SOIL-1         881       CPE4P         148        1047        1058         147


********************************************************************************
Probe Values Report, written on Sat Dec 15 17:34:07 2018

Source
-------

   ODB: D:/thesis/mini-thesis/centrifuge/Centrifuge-2018-12-15-17-23.odb
   Step: injection
   Frame: Increment     32: Step Time =    100.0
   Variable: U, U2

Loc 1 : Integration point values

Probe values reported at integration points

  Part Instance  Element ID        Type  Attached nodes
--------------------------------------------------------------------------------
      SOIL-1         153       CPE4P         171         172         389         388


