********************************************************************************
Probe Values Report, written on Sat Dec 15 16:41:09 2018

Source
-------

   ODB: D:/thesis/mini-thesis/centrifuge/Centrifuge-2018-12-14-22-58.odb
   Step: injection
   Frame: Increment     79: Step Time =    100.0
   Variable: S, Mises (Avg: 75)

Probe values reported at nodes

  Part Instance     Node ID                   Orig. Coords                                     Def. Coords                 
                                    X               Y               Z               X               Y               Z      
-------------------------------------------------------------------------------------------------------------------------
      SOIL-1        8404              0.              0.              0.              0.              0.              0.
      SOIL-1        1771   -1.36918E-013              1.              0.       0.0743985        0.974291              0.
      SOIL-1        1775             0.5          1.0004              0.        0.573312        0.977149              0.
      SOIL-1        1779             1.5         1.00071              0.          1.5797        0.995727              0.
      SOIL-1        1783             2.5         1.69131              0.         2.57551         1.67862              0.
      SOIL-1        1787         3.11376              2.              0.         3.18591         1.98689              0.
      SOIL-1        1791             3.5         2.48094              0.         3.56578         2.46956              0.
      SOIL-1        1795         4.28069              3.              0.         4.34516         2.98525              0.
      SOIL-1        1799             4.5         3.20588              0.         4.56051         3.19171              0.
      SOIL-1        1803             5.5         3.80616              0.         5.56254         3.78837              0.
      SOIL-1        1807         5.71958              4.              0.         5.78061         3.98237              0.
      SOIL-1        1811             6.5         4.69429              0.         6.55402         4.67526              0.
      SOIL-1        1815         6.74588              5.              0.         6.79869         4.98093              0.
      SOIL-1        1819             7.5         5.94456              0.         7.54441         5.91959              0.
      SOIL-1        1823         7.53718              6.              0.         7.58142         5.97486              0.
      SOIL-1        1827         8.20218              7.              0.         8.22759         6.99243              0.
      SOIL-1        1831             8.5         7.45195              0.         8.52635         7.44669              0.
      SOIL-1        1835            8.51              8.              0.         8.53547         7.99855              0.
      SOIL-1        1839         8.52515              9.              0.          8.5261         9.00464              0.
      SOIL-1        1840             8.5         9.14222              0.         8.50098         9.14663              0.


  Part Instance     Node ID  Attached elements        S, Mises
---------------------------------------------------------------
      SOIL-1        8404            4980         NoValue
      SOIL-1        1771            1664         NoValue
      SOIL-1        1775            1666         NoValue
      SOIL-1        1779            1668         NoValue
      SOIL-1        1783            1670         NoValue
      SOIL-1        1787            1672         NoValue
      SOIL-1        1791            1674         NoValue
      SOIL-1        1795            1676         NoValue
      SOIL-1        1799            1678         NoValue
      SOIL-1        1803            1680         NoValue
      SOIL-1        1807            1682         NoValue
      SOIL-1        1811            1684         NoValue
      SOIL-1        1815            1686         NoValue
      SOIL-1        1819            1688         NoValue
      SOIL-1        1823            1690         NoValue
      SOIL-1        1827            1692         NoValue
      SOIL-1        1831            1694         NoValue
      SOIL-1        1835            1696         NoValue
      SOIL-1        1839            1698         NoValue
      SOIL-1        1840            1698         NoValue


